<number of tasks>
50

<cycle time>
1000

<order strength>
0.896


<task times>
1 453
2 563
3 448
4 622
5 551
6 683
7 423
8 476
9 547
10 544
11 455
12 524
13 414
14 599
15 469
16 579
17 350
18 264
19 586
20 442
21 356
22 264
23 757
24 500
25 257
26 644
27 549
28 536
29 345
30 307
31 408
32 359
33 531
34 375
35 517
36 424
37 448
38 487
39 424
40 273
41 718
42 384
43 452
44 531
45 501
46 474
47 603
48 715
49 422
50 498

<precedence relations>
1,4
1,7
2,4
2,5
2,6
2,7
3,4
3,5
3,6
3,7
4,8
4,9
4,10
5,8
5,9
5,10
6,8
6,9
6,10
7,8
7,9
7,10
8,11
8,12
8,13
8,14
9,11
9,12
9,13
9,14
10,11
10,12
10,13
10,14
11,15
11,16
11,17
12,15
12,16
12,17
13,15
13,16
13,17
14,15
14,16
14,17
15,18
15,19
16,18
16,19
17,18
17,19
18,20
18,21
19,20
19,21
20,22
20,23
21,22
21,23
22,24
22,25
23,24
23,25
24,37
24,41
25,26
26,27
26,28
26,29
27,31
28,30
28,43
29,30
29,31
29,32
30,33
31,35
32,33
32,34
32,35
33,36
34,37
34,46
35,36
35,37
35,38
36,40
36,41
36,42
37,42
38,39
39,43
39,45
40,46
40,48
41,46
41,48
42,44
42,45
43,46
43,47
44,47
46,49
47,48
47,49
47,50

<end>
